************************************************************************
file with basedata            : mm11_.bas
initial value random generator: 447042032
************************************************************************
projects                      :  1
jobs (incl. supersource/sink ):  12
horizon                       :  80
RESOURCES
  - renewable                 :  2   R
  - nonrenewable              :  2   N
  - doubly constrained        :  0   D
************************************************************************
PROJECT INFORMATION:
pronr.  #jobs rel.date duedate tardcost  MPM-Time
    1     10      0       21        6       21
************************************************************************
PRECEDENCE RELATIONS:
jobnr.    #modes  #successors   successors
   0        1          3           1   2   3
   1        3          1           6
   2        3          2           4   5
   3        3          3           4   5  10
   4        3          2           6   9
   5        3          2           8   9
   6        3          1           7
   7        3          1           8
   8        3          1          11
   9        3          1          11
  10        3          1          11
  11        1          0        
************************************************************************
REQUESTS/DURATIONS:
jobnr. mode duration  R 1  R 2  R 3  R 4  E(W 1)
------------------------------------------------------------------------
  0      1     0       0    0    0    0     0
  1      1     5       3    0    5    0    40
  2      1     5       7    0    5    0    60
  3      1     5       4    0    0    4    40
  4      1     4       3    0    0    6    36
  5      1     2       6    0    0    7    26
  6      1     2      10    0    2    0    24
  7      1     5       1    0    0    4    30
  8      1     5       0    6    7    0    65
  9      1     5       7    0    0    8    75
 10      1     3       0    7    0   10    51
 11      1     0       0    0    0    0     0
************************************************************************
RESOURCEAVAILABILITIES:
  R 1
   100
************************************************************************
RESOURCE LIMITS:
jobnr.  l(R 1)  u(R 1)
------------------------------------------------------------------------
  0        0       0
  1        5       8
  2        7      12
  3        4       8
  4        5       9
  5        7      13
  6        6      12
  7        3       6
  8        7      13
  9        8      15
 10        9      17
 11        0       0
************************************************************************
SCENARIOS:
------------------------------------------------------------------------
RESOURCE k = 1
s = 1: (0, 54, 71, 33, 35, 36, 25, 22, 62, 83, 37, 0)
s = 2: (0, 77, 73, 25, 42, 27, 28, 23, 86, 105, 47, 0)
s = 3: (0, 37, 71, 58, 39, 34, 22, 23, 58, 81, 47, 0)
s = 4: (0, 44, 55, 37, 52, 26, 22, 32, 68, 69, 31, 0)
s = 5: (0, 36, 86, 25, 37, 18, 23, 34, 82, 84, 48, 0)
s = 6: (0, 62, 54, 30, 43, 17, 22, 17, 55, 58, 84, 0)
s = 7: (0, 52, 59, 32, 24, 31, 24, 38, 74, 81, 45, 0)
s = 8: (0, 25, 45, 54, 45, 33, 22, 27, 78, 83, 48, 0)
s = 9: (0, 28, 47, 35, 31, 30, 19, 42, 85, 70, 63, 0)
s = 10: (0, 44, 42, 70, 32, 19, 31, 33, 47, 102, 53, 0)
s = 11: (0, 39, 58, 30, 23, 17, 28, 25, 83, 69, 33, 0)
s = 12: (0, 39, 60, 45, 51, 19, 21, 19, 43, 81, 43, 0)
s = 13: (0, 57, 50, 25, 52, 29, 23, 38, 76, 53, 31, 0)
s = 14: (0, 52, 48, 46, 42, 20, 17, 44, 62, 80, 51, 0)
s = 15: (0, 28, 50, 39, 59, 29, 26, 24, 95, 116, 71, 0)
s = 16: (0, 30, 45, 34, 39, 23, 18, 24, 83, 55, 59, 0)
s = 17: (0, 30, 53, 41, 38, 28, 24, 43, 36, 55, 47, 0)
s = 18: (0, 29, 54, 39, 27, 25, 28, 34, 91, 101, 42, 0)
s = 19: (0, 36, 70, 50, 34, 33, 16, 21, 65, 66, 37, 0)
s = 20: (0, 43, 93, 40, 52, 30, 18, 22, 73, 129, 74, 0)
s = 21: (0, 40, 37, 46, 32, 20, 20, 23, 47, 75, 33, 0)
s = 22: (0, 31, 58, 47, 46, 29, 20, 23, 61, 92, 54, 0)
s = 23: (0, 32, 37, 37, 22, 21, 26, 28, 71, 75, 56, 0)
s = 24: (0, 32, 39, 62, 32, 32, 22, 24, 51, 61, 40, 0)
s = 25: (0, 48, 52, 36, 29, 20, 24, 25, 65, 102, 53, 0)
s = 26: (0, 38, 81, 34, 42, 29, 18, 30, 50, 61, 42, 0)
s = 27: (0, 62, 43, 39, 31, 19, 32, 32, 62, 126, 57, 0)
s = 28: (0, 32, 42, 28, 43, 23, 38, 28, 72, 53, 49, 0)
s = 29: (0, 39, 63, 34, 34, 29, 21, 34, 57, 68, 34, 0)
s = 30: (0, 57, 77, 39, 57, 22, 19, 21, 70, 91, 40, 0)
s = 31: (0, 29, 99, 35, 27, 22, 20, 23, 53, 87, 51, 0)
s = 32: (0, 76, 72, 42, 36, 29, 24, 24, 91, 86, 63, 0)
s = 33: (0, 28, 67, 23, 33, 19, 24, 39, 72, 54, 51, 0)
s = 34: (0, 43, 107, 46, 54, 30, 26, 27, 59, 53, 46, 0)
s = 35: (0, 29, 64, 57, 29, 27, 26, 31, 34, 83, 70, 0)
s = 36: (0, 31, 59, 31, 37, 29, 24, 46, 47, 73, 32, 0)
s = 37: (0, 51, 60, 44, 36, 20, 17, 22, 49, 69, 52, 0)
s = 38: (0, 34, 57, 45, 34, 15, 28, 31, 46, 57, 43, 0)
s = 39: (0, 31, 44, 52, 40, 37, 30, 32, 43, 46, 65, 0)
s = 40: (0, 36, 48, 41, 41, 30, 29, 31, 61, 117, 67, 0)
s = 41: (0, 28, 46, 44, 42, 26, 21, 47, 41, 57, 62, 0)
s = 42: (0, 38, 78, 58, 53, 19, 16, 38, 108, 80, 55, 0)
s = 43: (0, 42, 53, 52, 37, 28, 38, 29, 66, 83, 42, 0)
s = 44: (0, 43, 62, 45, 54, 32, 22, 17, 80, 99, 77, 0)
s = 45: (0, 36, 68, 37, 44, 34, 38, 22, 42, 72, 47, 0)
s = 46: (0, 68, 61, 22, 36, 40, 27, 25, 61, 82, 72, 0)
s = 47: (0, 42, 52, 31, 29, 29, 29, 33, 51, 80, 84, 0)
s = 48: (0, 61, 59, 45, 38, 40, 28, 23, 74, 111, 45, 0)
s = 49: (0, 53, 54, 40, 27, 40, 32, 30, 95, 59, 54, 0)
s = 50: (0, 39, 44, 25, 20, 27, 32, 20, 51, 68, 53, 0)
s = 51: (0, 22, 60, 56, 26, 27, 25, 43, 60, 46, 33, 0)
s = 52: (0, 40, 63, 68, 45, 17, 22, 26, 46, 93, 79, 0)
s = 53: (0, 31, 82, 47, 31, 43, 28, 30, 48, 57, 47, 0)
s = 54: (0, 40, 63, 37, 19, 26, 31, 44, 57, 112, 53, 0)
s = 55: (0, 35, 34, 40, 36, 28, 33, 20, 41, 67, 55, 0)
s = 56: (0, 54, 46, 27, 24, 50, 25, 37, 73, 73, 34, 0)
s = 57: (0, 49, 46, 59, 40, 16, 27, 42, 46, 91, 57, 0)
s = 58: (0, 29, 86, 36, 32, 23, 20, 24, 44, 62, 39, 0)
s = 59: (0, 29, 42, 37, 29, 33, 16, 47, 76, 67, 38, 0)
s = 60: (0, 58, 60, 23, 37, 20, 25, 17, 56, 81, 56, 0)
s = 61: (0, 33, 49, 40, 56, 33, 17, 22, 67, 60, 63, 0)
s = 62: (0, 46, 60, 25, 34, 34, 27, 20, 44, 82, 64, 0)
s = 63: (0, 48, 62, 45, 27, 36, 22, 37, 58, 91, 28, 0)
s = 64: (0, 41, 50, 44, 61, 28, 14, 42, 87, 56, 39, 0)
s = 65: (0, 37, 68, 35, 28, 18, 30, 22, 61, 59, 41, 0)
s = 66: (0, 21, 37, 53, 44, 24, 21, 21, 59, 87, 29, 0)
s = 67: (0, 54, 40, 34, 24, 32, 34, 31, 56, 105, 34, 0)
s = 68: (0, 31, 73, 37, 34, 17, 37, 22, 66, 58, 63, 0)
s = 69: (0, 44, 32, 41, 42, 18, 20, 20, 39, 50, 61, 0)
s = 70: (0, 50, 49, 41, 32, 20, 29, 24, 72, 108, 82, 0)
s = 71: (0, 39, 100, 45, 32, 40, 27, 28, 47, 58, 50, 0)
s = 72: (0, 28, 54, 69, 27, 39, 18, 45, 110, 74, 70, 0)
s = 73: (0, 51, 67, 40, 49, 26, 39, 23, 52, 62, 49, 0)
s = 74: (0, 25, 37, 46, 54, 29, 25, 44, 48, 71, 89, 0)
s = 75: (0, 34, 50, 54, 35, 28, 22, 37, 55, 109, 52, 0)
s = 76: (0, 25, 44, 22, 46, 26, 33, 34, 71, 92, 48, 0)
s = 77: (0, 51, 88, 63, 24, 28, 15, 27, 69, 65, 46, 0)
s = 78: (0, 41, 75, 34, 24, 32, 20, 28, 99, 57, 49, 0)
s = 79: (0, 44, 75, 40, 43, 36, 15, 17, 42, 56, 60, 0)
s = 80: (0, 47, 54, 26, 45, 30, 21, 25, 80, 88, 70, 0)
s = 81: (0, 53, 72, 37, 51, 25, 32, 27, 68, 77, 32, 0)
s = 82: (0, 47, 67, 56, 34, 31, 23, 18, 77, 68, 32, 0)
s = 83: (0, 42, 39, 32, 38, 31, 15, 36, 53, 85, 38, 0)
s = 84: (0, 25, 98, 32, 37, 22, 26, 48, 48, 67, 79, 0)
s = 85: (0, 56, 84, 51, 26, 19, 21, 39, 38, 99, 44, 0)
s = 86: (0, 40, 35, 52, 33, 18, 20, 45, 68, 63, 69, 0)
s = 87: (0, 39, 55, 29, 39, 44, 24, 25, 49, 127, 56, 0)
s = 88: (0, 31, 75, 50, 34, 40, 23, 33, 74, 42, 46, 0)
s = 89: (0, 28, 40, 26, 32, 34, 26, 25, 73, 94, 86, 0)
s = 90: (0, 21, 78, 37, 51, 23, 26, 31, 67, 116, 74, 0)
s = 91: (0, 29, 52, 43, 55, 24, 24, 22, 88, 70, 49, 0)
s = 92: (0, 64, 36, 36, 36, 39, 29, 18, 64, 89, 29, 0)
s = 93: (0, 40, 53, 25, 26, 17, 29, 25, 86, 72, 88, 0)
s = 94: (0, 32, 51, 34, 39, 33, 26, 31, 62, 74, 56, 0)
s = 95: (0, 47, 115, 55, 47, 25, 37, 21, 95, 59, 50, 0)
s = 96: (0, 42, 84, 43, 31, 28, 15, 28, 53, 60, 50, 0)
s = 97: (0, 29, 77, 78, 39, 29, 37, 26, 66, 90, 52, 0)
s = 98: (0, 51, 56, 38, 34, 28, 25, 31, 70, 92, 43, 0)
s = 99: (0, 40, 51, 31, 59, 25, 22, 26, 42, 58, 67, 0)
s = 100: (0, 28, 58, 42, 27, 45, 16, 40, 68, 46, 42, 0)
s = 101: (0, 45, 37, 28, 54, 34, 24, 18, 60, 61, 34, 0)
s = 102: (0, 34, 76, 29, 26, 18, 33, 20, 98, 93, 30, 0)
s = 103: (0, 41, 45, 40, 35, 21, 19, 42, 74, 57, 31, 0)
s = 104: (0, 29, 65, 68, 39, 36, 22, 28, 46, 43, 27, 0)
s = 105: (0, 30, 38, 36, 28, 26, 17, 28, 40, 50, 51, 0)
s = 106: (0, 30, 94, 30, 50, 20, 19, 40, 51, 95, 34, 0)
s = 107: (0, 23, 56, 24, 35, 25, 19, 26, 45, 95, 65, 0)
s = 108: (0, 78, 41, 32, 30, 37, 18, 36, 68, 115, 46, 0)
s = 109: (0, 40, 36, 37, 31, 29, 24, 25, 67, 53, 42, 0)
s = 110: (0, 25, 101, 41, 53, 34, 30, 43, 109, 144, 64, 0)
s = 111: (0, 27, 54, 45, 31, 29, 26, 36, 59, 97, 55, 0)
s = 112: (0, 35, 87, 41, 31, 20, 38, 36, 79, 69, 56, 0)
s = 113: (0, 53, 79, 39, 33, 36, 17, 25, 42, 130, 29, 0)
s = 114: (0, 47, 100, 60, 43, 16, 26, 44, 92, 87, 54, 0)
s = 115: (0, 29, 66, 44, 38, 20, 26, 50, 79, 65, 43, 0)
s = 116: (0, 44, 60, 51, 28, 33, 28, 30, 45, 44, 38, 0)
s = 117: (0, 34, 63, 56, 28, 25, 14, 19, 41, 67, 64, 0)
s = 118: (0, 54, 49, 37, 36, 24, 38, 43, 52, 64, 49, 0)
s = 119: (0, 65, 44, 55, 29, 27, 33, 30, 52, 93, 34, 0)
s = 120: (0, 22, 94, 61, 27, 24, 20, 21, 62, 97, 60, 0)
s = 121: (0, 34, 56, 44, 41, 32, 16, 35, 64, 44, 52, 0)
s = 122: (0, 47, 106, 48, 25, 23, 21, 37, 35, 54, 40, 0)
s = 123: (0, 27, 69, 36, 40, 29, 15, 20, 76, 69, 76, 0)
s = 124: (0, 42, 37, 42, 28, 27, 34, 23, 83, 91, 65, 0)
s = 125: (0, 48, 72, 34, 29, 29, 14, 21, 99, 85, 37, 0)
s = 126: (0, 38, 79, 24, 35, 17, 25, 21, 43, 88, 54, 0)
s = 127: (0, 38, 77, 42, 29, 38, 30, 21, 47, 57, 33, 0)
s = 128: (0, 44, 56, 56, 28, 28, 33, 32, 47, 68, 35, 0)
s = 129: (0, 30, 68, 30, 33, 15, 22, 28, 50, 62, 53, 0)
s = 130: (0, 42, 59, 34, 19, 16, 32, 49, 69, 69, 46, 0)
s = 131: (0, 51, 41, 46, 48, 17, 18, 29, 67, 122, 45, 0)
s = 132: (0, 47, 40, 54, 26, 18, 17, 24, 60, 54, 42, 0)
s = 133: (0, 33, 43, 48, 28, 22, 21, 38, 50, 49, 74, 0)
s = 134: (0, 31, 46, 35, 31, 31, 27, 27, 84, 53, 39, 0)
s = 135: (0, 51, 34, 33, 22, 35, 33, 28, 100, 48, 55, 0)
s = 136: (0, 49, 63, 24, 37, 23, 27, 35, 40, 60, 44, 0)
s = 137: (0, 38, 79, 24, 23, 38, 28, 20, 54, 68, 54, 0)
s = 138: (0, 44, 46, 24, 42, 25, 23, 42, 41, 48, 64, 0)
s = 139: (0, 27, 70, 26, 38, 15, 14, 46, 49, 67, 40, 0)
s = 140: (0, 37, 83, 47, 27, 23, 30, 31, 74, 62, 37, 0)
s = 141: (0, 53, 55, 39, 34, 36, 25, 29, 52, 103, 41, 0)
s = 142: (0, 32, 42, 43, 30, 39, 29, 19, 67, 68, 43, 0)
s = 143: (0, 61, 37, 32, 41, 19, 29, 37, 80, 66, 74, 0)
s = 144: (0, 27, 46, 26, 38, 24, 41, 25, 73, 50, 64, 0)
s = 145: (0, 38, 88, 36, 55, 20, 22, 22, 78, 94, 52, 0)
s = 146: (0, 39, 42, 37, 32, 17, 30, 30, 71, 94, 74, 0)
s = 147: (0, 54, 43, 34, 39, 24, 26, 22, 53, 52, 31, 0)
s = 148: (0, 51, 45, 28, 20, 19, 31, 26, 59, 67, 52, 0)
s = 149: (0, 50, 73, 39, 41, 20, 23, 16, 49, 96, 48, 0)
s = 150: (0, 38, 61, 51, 29, 30, 19, 26, 62, 110, 46, 0)
s = 151: (0, 37, 74, 33, 34, 24, 33, 21, 40, 46, 37, 0)
s = 152: (0, 48, 54, 45, 31, 20, 26, 49, 79, 47, 58, 0)
s = 153: (0, 39, 47, 58, 25, 21, 19, 45, 59, 102, 56, 0)
s = 154: (0, 38, 77, 24, 24, 26, 34, 20, 35, 63, 65, 0)
s = 155: (0, 32, 40, 64, 46, 19, 30, 21, 49, 68, 37, 0)
s = 156: (0, 60, 41, 35, 33, 26, 20, 33, 51, 55, 69, 0)
s = 157: (0, 51, 67, 33, 31, 32, 23, 28, 39, 80, 43, 0)
s = 158: (0, 64, 78, 29, 45, 25, 29, 46, 36, 91, 50, 0)
s = 159: (0, 31, 97, 66, 51, 28, 20, 44, 78, 68, 82, 0)
s = 160: (0, 45, 33, 55, 48, 28, 32, 32, 61, 53, 44, 0)
s = 161: (0, 62, 69, 38, 22, 25, 16, 21, 102, 63, 53, 0)
s = 162: (0, 32, 96, 32, 29, 29, 22, 25, 42, 86, 47, 0)
s = 163: (0, 36, 84, 36, 34, 30, 17, 36, 43, 73, 30, 0)
s = 164: (0, 34, 66, 53, 38, 20, 31, 26, 49, 111, 69, 0)
s = 165: (0, 30, 59, 48, 33, 24, 31, 25, 91, 86, 39, 0)
s = 166: (0, 24, 48, 35, 38, 25, 34, 36, 68, 53, 42, 0)
s = 167: (0, 36, 41, 52, 62, 21, 16, 31, 56, 75, 60, 0)
s = 168: (0, 24, 43, 35, 41, 19, 16, 32, 92, 84, 62, 0)
s = 169: (0, 32, 73, 27, 37, 34, 20, 39, 52, 136, 41, 0)
s = 170: (0, 41, 38, 27, 35, 35, 21, 39, 87, 93, 28, 0)
s = 171: (0, 46, 48, 50, 35, 18, 20, 27, 76, 78, 69, 0)
s = 172: (0, 39, 48, 40, 22, 34, 24, 21, 48, 69, 44, 0)
s = 173: (0, 33, 43, 31, 44, 42, 18, 18, 36, 61, 69, 0)
s = 174: (0, 38, 67, 33, 28, 23, 15, 34, 60, 64, 69, 0)
s = 175: (0, 56, 78, 33, 22, 30, 24, 33, 43, 64, 75, 0)
s = 176: (0, 61, 62, 27, 46, 23, 24, 22, 99, 81, 85, 0)
s = 177: (0, 33, 63, 31, 35, 21, 23, 33, 46, 70, 50, 0)
s = 178: (0, 43, 57, 31, 39, 23, 14, 32, 101, 108, 38, 0)
s = 179: (0, 29, 70, 49, 44, 17, 23, 37, 76, 90, 47, 0)
s = 180: (0, 63, 42, 41, 33, 23, 24, 37, 86, 76, 58, 0)
s = 181: (0, 64, 62, 61, 46, 29, 23, 20, 78, 74, 48, 0)
s = 182: (0, 60, 35, 49, 46, 31, 24, 20, 81, 82, 58, 0)
s = 183: (0, 24, 39, 36, 29, 28, 15, 17, 65, 71, 40, 0)
s = 184: (0, 37, 52, 28, 32, 15, 26, 27, 54, 47, 33, 0)
s = 185: (0, 33, 35, 40, 38, 22, 29, 23, 45, 71, 59, 0)
s = 186: (0, 46, 73, 41, 22, 27, 24, 30, 67, 95, 29, 0)
s = 187: (0, 32, 84, 37, 32, 25, 34, 33, 51, 91, 62, 0)
s = 188: (0, 60, 44, 54, 24, 34, 36, 42, 44, 55, 51, 0)
s = 189: (0, 55, 38, 23, 40, 19, 16, 20, 65, 63, 70, 0)
s = 190: (0, 82, 72, 28, 37, 39, 26, 36, 51, 85, 36, 0)
s = 191: (0, 42, 93, 33, 40, 41, 19, 49, 62, 117, 48, 0)
s = 192: (0, 50, 49, 34, 45, 35, 25, 26, 69, 69, 44, 0)
s = 193: (0, 52, 66, 31, 35, 19, 25, 24, 65, 75, 33, 0)
s = 194: (0, 49, 74, 36, 29, 24, 38, 28, 75, 80, 58, 0)
s = 195: (0, 37, 112, 45, 24, 24, 18, 56, 72, 52, 44, 0)
s = 196: (0, 64, 103, 27, 45, 25, 14, 33, 53, 80, 59, 0)
s = 197: (0, 58, 47, 28, 57, 19, 15, 41, 92, 69, 65, 0)
s = 198: (0, 35, 52, 24, 31, 32, 24, 32, 105, 81, 47, 0)
s = 199: (0, 39, 69, 44, 37, 28, 19, 38, 75, 57, 58, 0)
s = 200: (0, 47, 49, 37, 20, 19, 20, 33, 65, 73, 60, 0)
************************************************************************
ES/LS-VALUES:
jobnr.   ES(i)    LS(i)
------------------------------------------------------------------------
  0        0        0
  1        0       46
  2        0       40
  3        0       40
  4        9       50
  5        9       66
  6       15       57
  7       18       61
  8       27       71
  9       15       70
 10        9       74
 11       35       80
************************************************************************
BIG-M-VALUES:
M1 = 20, M2 = 144
************************************************************************
